sifdecoder -A pc64.lnx.gfo -st   GRIDNETB

 Problem name: GRIDNETB

 Double precision version will be formed

 The objective function uses 1 nonlinear group
 
 There are 3844 linear equality constraints
 
 There are 7564 free variables
 
 
 File successfully decoded
 CUTEST: tools (double precision version) compiled successfully
 CUTEst: ipopt (double precision version) compiled successfully

******************************************************************************
This program contains Ipopt, a library for large-scale nonlinear optimization.
 Ipopt is released as open source code under the Eclipse Public License (EPL).
         For more information visit http://projects.coin-or.org/Ipopt
******************************************************************************

This is Ipopt version trunk, running with linear solver ma57.

Number of nonzeros in equality constraint Jacobian...:    15128
Number of nonzeros in inequality constraint Jacobian.:        0
Number of nonzeros in Lagrangian Hessian.............:     7564

Total number of variables............................:     7564
                     variables with only lower bounds:        0
                variables with lower and upper bounds:        0
                     variables with only upper bounds:        0
Total number of equality constraints.................:     3844
Total number of inequality constraints...............:        0
        inequality constraints with only lower bounds:        0
   inequality constraints with lower and upper bounds:        0
        inequality constraints with only upper bounds:        0

iter    objective    inf_pr   inf_du lg(mu)  ||d||  lg(rg) alpha_du alpha_pr  ls
   0  0.0000000e+00 1.00e+01 0.00e+00  -1.0 0.00e+00    -  0.00e+00 0.00e+00   0
   1  1.2761469e+02 4.44e-16 2.05e-14  -1.0 5.00e+00    -  1.00e+00 1.00e+00h  1

Number of Iterations....: 1

                                   (scaled)                 (unscaled)
Objective...............:   1.2761469458742729e+02    1.2761469458742729e+02
Dual infeasibility......:   2.0480145357382185e-14    2.0480145357382185e-14
Constraint violation....:   4.4408920985006262e-16    4.4408920985006262e-16
Complementarity.........:   0.0000000000000000e+00    0.0000000000000000e+00
Overall NLP error.......:   2.0480145357382185e-14    2.0480145357382185e-14


Number of objective function evaluations             = 2
Number of objective gradient evaluations             = 2
Number of equality constraint evaluations            = 2
Number of inequality constraint evaluations          = 0
Number of equality constraint Jacobian evaluations   = 2
Number of inequality constraint Jacobian evaluations = 0
Number of Lagrangian Hessian evaluations             = 1
Total CPU secs in IPOPT (w/o function evaluations)   =      0.105
Total CPU secs in NLP function evaluations           =      0.011

EXIT: Optimal Solution Found.

************************ CUTEst statistics ************************


 Package used            :  IPOPT
 Problem                 :  GRIDNETB  
 # variables             =            7564
 # constraints           =            3844
 # objective functions   =        0.5000000E+01
 # objective gradients   =        0.3000000E+01
 # objective Hessians    =        0.2000000E+01
 # Hessian-vector prdct  =        0.0000000E+00
 # constraints functions =        0.6000000E+01
 # constraints gradients =        0.4000000E+01
 # constraints Hessians  =        0.2000000E+01
 Exit code               =               0
 Final f                 =        1.2761469458742729D+02
 Bounds feasibility      =        0.0000000000000000D+00
 Set up time             =            0.51 seconds
 Solve time              =            0.31 seconds


******************************************************************

